Solving original (integer) problem with strategy gdp.hull_exact_conic_no_cholesky...
--- Job model.gms Start 02/16/26 02:26:47 52.2.0 d8e408be LEX-LEG x86 64bit/Linux
--- Applying:
    /package/gams/52.2/gmsprmun.txt
--- GAMS Parameters defined
    Input /local/scratch/a/sgusev/repos/k_means/data/gams_scip_gdp.hull_exact_conic_no_cholesky/no_mode/2026-02-16_02-26-46/original/model.gms
    Output /local/scratch/a/sgusev/repos/k_means/data/gams_scip_gdp.hull_exact_conic_no_cholesky/no_mode/2026-02-16_02-26-46/original/output.lst
    ScrDir /local/scratch/a/sgusev/repos/k_means/data/gams_scip_gdp.hull_exact_conic_no_cholesky/no_mode/2026-02-16_02-26-46/original/225a/
    SysDir /package/gams/52.2/
    CurDir /local/scratch/a/sgusev/repos/k_means/data/gams_scip_gdp.hull_exact_conic_no_cholesky/no_mode/2026-02-16_02-26-46/original/
    LogOption 3
    AppendLog 1
Licensee: David Bernal / SECQUOIA Research Group         G251008+0003Ac-GEN
          Purdue University, Davidson School of Chemical EngineeringDCE4838
          225a/gamslice.dat
          5a82958a-fbca-4a23
          node:66820903 mem:995 cores:48 ipport:57333 v:2                  
          Evaluation license: Not for commercial or production use
          The time-limited license stops working on : Jun 30, 2027
System information: 48 physical cores and 995 Gb physical memory detected
GAMS 52.2.0   Copyright (C) 1987-2025 GAMS Development. All rights reserved
--- Starting compilation
--- model.gms(3709) 2 Mb
--- $echo File /local/scratch/a/sgusev/repos/k_means/data/gams_scip_gdp.hull_exact_conic_no_cholesky/no_mode/2026-02-16_02-26-46/original/scip.opt
--- model.gms(5465) 2 Mb
--- Starting execution: elapsed 0:00:00.019
--- model.gms(3719) 3 Mb
--- Generating MINLP model GAMS_MODEL
--- model.gms(3723) 6 Mb
---   1,132 rows  557 columns  2,959 non-zeroes
---   768 nl-code  288 nl-non-zeroes
---   48 discrete-columns
--- Range statistics (absolute non-zero finite values)
--- RHS       [min, max] : [ 1.000E+00, 1.000E+00] - Zero values observed as well
--- Bound     [min, max] : [ 1.000E+00, 9.600E+01] - Zero values observed as well
--- Matrix    [min, max] : [ 4.287E-02, 9.600E+01] - Zero values observed as well
--- model.gms(3723) 4 Mb
--- Executing SCIP (Solvelink=5): elapsed 0:00:00.025

SCIP             52.2.0 d8e408be Dec 8, 2025           LEG x86 64bit/Linux    
SCIP version 9.2.4 (a94f778ac8)
Copyright (c) 2002-2025 Zuse Institute Berlin (ZIB)

External libraries: 
  CPLEX 22.1.2.0       Linear Programming Solver developed by IBM (www.cplex.com)
  CppAD 20180000.0     Algorithmic Differentiation of C++ algorithms developed by B. Bell (github.com/coin-or/CppAD)
  PaPILO 2.4.4         parallel presolve for integer and linear optimization (github.com/scipopt/papilo) (built with TBB) [GitHash: 7c826d50]
  Nauty 2.8.9          Computing Graph Automorphism Groups by Brendan D. McKay (users.cecs.anu.edu.au/~bdm/nauty)
  sassy 1.1            Symmetry preprocessor by Markus Anders (github.com/markusa4/sassy)
  Ipopt 3.14.19        Interior Point Optimizer developed by A. Waechter et.al. (github.com/coin-or/Ipopt)

reading option file /local/scratch/a/sgusev/repos/k_means/data/gams_scip_gdp.hull_exact_conic_no_cholesky/no_mode/2026-02-16_02-26-46/original/scip.opt
non-default parameter settings:
limits/time = 300
limits/gap = 1e-06
limits/absgap = 1e-10
lp/threads = 1
misc/printreason = FALSE
numerics/dualfeastol = 1e-06
parallel/maxnthreads = 1
nlpi/ipopt/linear_solver = "ma27"
nlpi/ipopt/linear_system_scaling = "mc19"

original problem has 556 variables (48 bin, 0 int, 508 cont) and 1131 constraints

all 1 solutions given by solution candidate storage are infeasible

presolving:
(round 1, fast)       12 del vars, 0 del conss, 0 add conss, 48 chg bounds, 0 chg sides, 0 chg coeffs, 0 upgd conss, 0 impls, 12 clqs
(round 2, fast)       12 del vars, 0 del conss, 0 add conss, 48 chg bounds, 12 chg sides, 0 chg coeffs, 0 upgd conss, 0 impls, 12 clqs
(round 3, exhaustive) 12 del vars, 0 del conss, 0 add conss, 48 chg bounds, 12 chg sides, 0 chg coeffs, 828 upgd conss, 0 impls, 12 clqs
   (0.0s) probing cycle finished: starting next cycle
   (0.0s) symmetry computation started: requiring (bin +, int +, cont +), (fixed: bin -, int -, cont -)
   (0.0s) no symmetry present (symcode time: 0.00)
presolving (4 rounds: 4 fast, 2 medium, 2 exhaustive):
 12 deleted vars, 0 deleted constraints, 0 added constraints, 48 tightened bounds, 0 added holes, 12 changed sides, 0 changed coefficients
 2304 implications, 12 cliques
presolved problem has 544 variables (48 bin, 0 int, 0 impl, 496 cont) and 1131 constraints
    816 constraints of type <varbound>
     12 constraints of type <setppc>
    255 constraints of type <linear>
     48 constraints of type <nonlinear>
Presolving Time: 0.02

 time | node  | left  |LP iter|LP it/n|mem/heur|mdpt |vars |cons |rows |cuts |sepa|confs|strbr|  dualbound   | primalbound  |  gap   | compl. 
  0.1s|     1 |     0 |   797 |     - |    11M |   0 | 832 |1131 |1803 |   0 |  0 |   0 |   0 | 0.000000e+00 |      --      |    Inf | unknown
o 0.1s|     1 |     0 |  1054 |     - |feaspump|   0 | 832 |1131 |1803 |   0 |  0 |   0 |   0 | 0.000000e+00 | 9.673179e+00 |    Inf | unknown
  0.2s|     1 |     0 |  1298 |     - |    12M |   0 | 832 |1131 |1963 | 160 |  1 |   0 |   0 | 0.000000e+00 | 9.673179e+00 |    Inf | unknown
  0.2s|     1 |     0 |  1298 |     - |    12M |   0 | 832 |1131 |1951 | 160 |  1 |   0 |   0 | 0.000000e+00 | 9.673179e+00 |    Inf | unknown
  0.2s|     1 |     0 |  1538 |     - |    12M |   0 | 832 |1131 |2127 | 336 |  2 |   0 |   0 | 0.000000e+00 | 9.673179e+00 |    Inf | unknown
  0.3s|     1 |     0 |  1771 |     - |    13M |   0 | 832 |1131 |2297 | 506 |  3 |   0 |   0 | 0.000000e+00 | 9.673179e+00 |    Inf | unknown
  0.3s|     1 |     0 |  1985 |     - |    14M |   0 | 832 |1131 |2454 | 663 |  4 |   0 |   0 | 0.000000e+00 | 9.673179e+00 |    Inf | unknown
  0.3s|     1 |     0 |  2186 |     - |    14M |   0 | 832 |1131 |2603 | 812 |  5 |   0 |   0 | 0.000000e+00 | 9.673179e+00 |    Inf | unknown
  0.3s|     1 |     0 |  2419 |     - |    15M |   0 | 832 |1131 |2743 | 952 |  6 |   0 |   0 | 0.000000e+00 | 9.673179e+00 |    Inf | unknown
  0.4s|     1 |     0 |  2689 |     - |    16M |   0 | 832 |1131 |2886 |1095 |  7 |   0 |   0 | 0.000000e+00 | 9.673179e+00 |    Inf | unknown
  0.4s|     1 |     0 |  2948 |     - |    16M |   0 | 832 |1131 |3027 |1236 |  8 |   0 |   0 | 0.000000e+00 | 9.673179e+00 |    Inf | unknown
  0.5s|     1 |     0 |  3221 |     - |    17M |   0 | 832 |1131 |3161 |1370 |  9 |   0 |   0 | 0.000000e+00 | 9.673179e+00 |    Inf | unknown
  0.5s|     1 |     0 |  3457 |     - |    17M |   0 | 832 |1131 |2641 |1486 | 10 |   0 |   0 | 0.000000e+00 | 9.673179e+00 |    Inf | unknown
  0.6s|     1 |     0 |  3702 |     - |    18M |   0 | 832 |1131 |2750 |1595 | 11 |   0 |   0 | 0.000000e+00 | 9.673179e+00 |    Inf | unknown
  0.6s|     1 |     0 |  3702 |     - |    18M |   0 | 832 |1119 |2750 |1595 | 11 |   0 |   0 | 0.000000e+00 | 9.673179e+00 |    Inf | unknown
 time | node  | left  |LP iter|LP it/n|mem/heur|mdpt |vars |cons |rows |cuts |sepa|confs|strbr|  dualbound   | primalbound  |  gap   | compl. 
  0.6s|     1 |     0 |  4038 |     - |    18M |   0 | 832 |1119 |2838 |1683 | 12 |   0 |   0 | 0.000000e+00 | 9.673179e+00 |    Inf | unknown
  0.6s|     1 |     0 |  4255 |     - |    18M |   0 | 832 |1119 |2913 |1758 | 13 |   0 |   0 | 0.000000e+00 | 9.673179e+00 |    Inf | unknown
  0.7s|     1 |     0 |  4466 |     - |    19M |   0 | 832 |1119 |2972 |1817 | 14 |   0 |   0 | 0.000000e+00 | 9.673179e+00 |    Inf | unknown
  0.7s|     1 |     0 |  4610 |     - |    19M |   0 | 832 |1119 |3023 |1868 | 15 |   0 |   0 | 0.000000e+00 | 9.673179e+00 |    Inf | unknown
  0.7s|     1 |     0 |  4763 |     - |    19M |   0 | 832 |1119 |2172 |1902 | 16 |   0 |   0 | 0.000000e+00 | 9.673179e+00 |    Inf | unknown
  0.8s|     1 |     0 |  4836 |     - |    20M |   0 | 832 |1119 |2202 |1932 | 17 |   0 |   0 | 0.000000e+00 | 9.673179e+00 |    Inf | unknown
  0.8s|     1 |     0 |  4986 |     - |    20M |   0 | 832 |1119 |2213 |1943 | 18 |   0 |   0 | 0.000000e+00 | 9.673179e+00 |    Inf | unknown
  0.8s|     1 |     0 |  5120 |     - |    20M |   0 | 832 |1119 |2238 |1968 | 19 |   0 |   0 | 0.000000e+00 | 9.673179e+00 |    Inf | unknown
  0.8s|     1 |     0 |  5429 |     - |    20M |   0 | 832 |1119 |2263 |1993 | 20 |   0 |   0 | 0.000000e+00 | 9.673179e+00 |    Inf | unknown
  0.8s|     1 |     0 |  5540 |     - |    20M |   0 | 832 |1119 |2296 |2026 | 21 |   0 |   0 | 0.000000e+00 | 9.673179e+00 |    Inf | unknown
  0.9s|     1 |     0 |  5677 |     - |    20M |   0 | 832 |1119 |1713 |2040 | 22 |   0 |   0 | 0.000000e+00 | 9.673179e+00 |    Inf | unknown
d 1.1s|     1 |     0 |  5948 |     - |    mpec|   0 | 832 |1119 |1713 |2040 | 22 |   0 |   0 | 0.000000e+00 | 9.040244e+00 |    Inf | unknown
  1.1s|     1 |     0 |  5948 |     - |    21M |   0 | 832 |1119 |1713 |2040 | 22 |   0 |   0 | 0.000000e+00 | 9.040244e+00 |    Inf | unknown
  1.1s|     1 |     0 |  6096 |     - |    21M |   0 | 832 |1119 |1726 |2053 | 23 |   0 |   0 | 0.000000e+00 | 9.040244e+00 |    Inf | unknown
  1.1s|     1 |     0 |  6226 |     - |    21M |   0 | 832 |1119 |1729 |2056 | 24 |   0 |   0 | 0.000000e+00 | 9.040244e+00 |    Inf | unknown
 time | node  | left  |LP iter|LP it/n|mem/heur|mdpt |vars |cons |rows |cuts |sepa|confs|strbr|  dualbound   | primalbound  |  gap   | compl. 
  1.2s|     1 |     0 |  6226 |     - |    21M |   0 | 832 |1119 |1729 |2056 | 24 |   0 |   3 | 0.000000e+00 | 9.040244e+00 |    Inf | unknown
  1.3s|     1 |     0 |  6717 |     - |    21M |   0 | 832 |1119 |1796 |2123 | 25 |   0 |   3 | 0.000000e+00 | 9.040244e+00 |    Inf | unknown
  1.3s|     1 |     0 |  6773 |     - |    21M |   0 | 832 |1119 |1800 |2127 | 26 |   0 |   3 | 0.000000e+00 | 9.040244e+00 |    Inf | unknown
  1.3s|     1 |     0 |  6773 |     - |    21M |   0 | 832 |1119 |1800 |2127 | 26 |   0 |   6 | 0.000000e+00 | 9.040244e+00 |    Inf | unknown
  1.4s|     1 |     0 |  7259 |     - |    21M |   0 | 832 |1119 |1661 |2245 | 27 |   0 |   6 | 0.000000e+00 | 9.040244e+00 |    Inf | unknown
  1.4s|     1 |     0 |  7491 |     - |    21M |   0 | 832 |1119 |1665 |2249 | 28 |   0 |   6 | 0.000000e+00 | 9.040244e+00 |    Inf | unknown
  1.5s|     1 |     0 |  7491 |     - |    21M |   0 | 832 |1119 |1665 |2249 | 28 |   0 |   9 | 0.000000e+00 | 9.040244e+00 |    Inf | unknown
  1.5s|     1 |     0 |  7940 |     - |    21M |   0 | 832 |1119 |1809 |2393 | 29 |   0 |   9 | 0.000000e+00 | 9.040244e+00 |    Inf | unknown
  1.5s|     1 |     0 |  8050 |     - |    21M |   0 | 832 |1119 |1819 |2403 | 30 |   0 |   9 | 0.000000e+00 | 9.040244e+00 |    Inf | unknown
  1.6s|     1 |     0 |  8050 |     - |    21M |   0 | 832 |1119 |1819 |2403 | 30 |   0 |  13 | 0.000000e+00 | 9.040244e+00 |    Inf | unknown
  1.6s|     1 |     0 |  8420 |     - |    21M |   0 | 832 |1119 |1979 |2563 | 31 |   0 |  13 | 0.000000e+00 | 9.040244e+00 |    Inf | unknown
  1.6s|     1 |     0 |  8443 |     - |    21M |   0 | 832 |1119 |1984 |2568 | 32 |   0 |  13 | 0.000000e+00 | 9.040244e+00 |    Inf | unknown
  1.7s|     1 |     0 |  8443 |     - |    21M |   0 | 832 |1119 |1984 |2568 | 32 |   0 |  16 | 0.000000e+00 | 9.040244e+00 |    Inf | unknown
  1.7s|     1 |     0 |  8788 |     - |    21M |   0 | 832 |1119 |1960 |2706 | 33 |   0 |  16 | 0.000000e+00 | 9.040244e+00 |    Inf | unknown
  1.7s|     1 |     0 |  8841 |     - |    21M |   0 | 832 |1119 |1964 |2710 | 34 |   0 |  16 | 0.000000e+00 | 9.040244e+00 |    Inf | unknown
 time | node  | left  |LP iter|LP it/n|mem/heur|mdpt |vars |cons |rows |cuts |sepa|confs|strbr|  dualbound   | primalbound  |  gap   | compl. 
  1.8s|     1 |     0 |  8841 |     - |    21M |   0 | 832 |1119 |1964 |2710 | 34 |   0 |  19 | 0.000000e+00 | 9.040244e+00 |    Inf | unknown
  1.9s|     1 |     0 | 10065 |     - |    21M |   0 | 832 |1119 |2088 |2834 | 35 |   0 |  19 | 0.000000e+00 | 9.040244e+00 |    Inf | unknown
  2.0s|     1 |     0 | 10239 |     - |    21M |   0 | 832 |1119 |2095 |2841 | 36 |   0 |  19 | 0.000000e+00 | 9.040244e+00 |    Inf | unknown
  2.1s|     1 |     0 | 10239 |     - |    21M |   0 | 832 |1119 |2095 |2841 | 36 |   0 |  22 | 0.000000e+00 | 9.040244e+00 |    Inf | unknown
  2.1s|     1 |     0 | 10694 |     - |    21M |   0 | 832 |1119 |2192 |2938 | 37 |   0 |  22 | 0.000000e+00 | 9.040244e+00 |    Inf | unknown
  2.1s|     1 |     0 | 10795 |     - |    21M |   0 | 832 |1119 |2199 |2945 | 38 |   0 |  22 | 0.000000e+00 | 9.040244e+00 |    Inf | unknown
  2.3s|     1 |     0 | 10795 |     - |    21M |   0 | 832 |1119 |2199 |2945 | 38 |   0 |  25 | 0.000000e+00 | 9.040244e+00 |    Inf | unknown
  2.3s|     1 |     0 | 11763 |     - |    21M |   0 | 832 |1119 |1953 |3038 | 39 |   0 |  25 | 0.000000e+00 | 9.040244e+00 |    Inf | unknown
  2.4s|     1 |     0 | 11880 |     - |    21M |   0 | 832 |1119 |1955 |3040 | 40 |   0 |  25 | 0.000000e+00 | 9.040244e+00 |    Inf | unknown
  2.6s|     1 |     0 | 11880 |     - |    21M |   0 | 832 |1119 |1955 |3040 | 40 |   0 |  30 | 0.000000e+00 | 9.040244e+00 |    Inf | unknown
  2.6s|     1 |     0 | 12222 |     - |    21M |   0 | 832 |1119 |2091 |3176 | 41 |   0 |  30 | 0.000000e+00 | 9.040244e+00 |    Inf | unknown
  2.6s|     1 |     0 | 12309 |     - |    21M |   0 | 832 |1119 |2099 |3184 | 42 |   0 |  30 | 0.000000e+00 | 9.040244e+00 |    Inf | unknown
  2.7s|     1 |     0 | 12309 |     - |    21M |   0 | 832 |1119 |2099 |3184 | 42 |   0 |  33 | 0.000000e+00 | 9.040244e+00 |    Inf | unknown
  2.8s|     1 |     0 | 13239 |     - |    21M |   0 | 832 |1119 |2237 |3322 | 43 |   0 |  33 | 0.000000e+00 | 9.040244e+00 |    Inf | unknown
  2.8s|     1 |     0 | 13339 |     - |    21M |   0 | 832 |1119 |2246 |3331 | 44 |   0 |  33 | 0.000000e+00 | 9.040244e+00 |    Inf | unknown
 time | node  | left  |LP iter|LP it/n|mem/heur|mdpt |vars |cons |rows |cuts |sepa|confs|strbr|  dualbound   | primalbound  |  gap   | compl. 
  2.9s|     1 |     0 | 13339 |     - |    21M |   0 | 832 |1119 |2246 |3331 | 44 |   0 |  36 | 0.000000e+00 | 9.040244e+00 |    Inf | unknown
  2.9s|     1 |     0 | 13730 |     - |    21M |   0 | 832 |1119 |1906 |3441 | 45 |   0 |  36 | 0.000000e+00 | 9.040244e+00 |    Inf | unknown
  2.9s|     1 |     0 | 13757 |     - |    21M |   0 | 832 |1119 |1909 |3444 | 46 |   0 |  36 | 0.000000e+00 | 9.040244e+00 |    Inf | unknown
  3.0s|     1 |     0 | 13757 |     - |    21M |   0 | 832 |1119 |1909 |3444 | 46 |   0 |  40 | 0.000000e+00 | 9.040244e+00 |    Inf | unknown
  3.0s|     1 |     0 | 14008 |     - |    21M |   0 | 832 |1119 |2011 |3546 | 47 |   0 |  40 | 0.000000e+00 | 9.040244e+00 |    Inf | unknown
  3.1s|     1 |     0 | 14090 |     - |    21M |   0 | 832 |1119 |2016 |3551 | 48 |   0 |  40 | 0.000000e+00 | 9.040244e+00 |    Inf | unknown
  3.1s|     1 |     0 | 14090 |     - |    21M |   0 | 832 |1119 |2016 |3551 | 48 |   0 |  43 | 0.000000e+00 | 9.040244e+00 |    Inf | unknown
  3.2s|     1 |     0 | 15065 |     - |    21M |   0 | 832 |1119 |2119 |3654 | 49 |   0 |  43 | 0.000000e+00 | 9.040244e+00 |    Inf | unknown
  3.2s|     1 |     0 | 15285 |     - |    21M |   0 | 832 |1119 |2126 |3661 | 50 |   0 |  43 | 0.000000e+00 | 9.040244e+00 |    Inf | unknown
  3.3s|     1 |     0 | 15285 |     - |    21M |   0 | 832 |1119 |2126 |3661 | 50 |   0 |  44 | 0.000000e+00 | 9.040244e+00 |    Inf | unknown
  3.3s|     1 |     0 | 15594 |     - |    21M |   0 | 832 |1119 |1877 |3763 | 51 |   0 |  44 | 0.000000e+00 | 9.040244e+00 |    Inf | unknown
  3.3s|     1 |     0 | 15707 |     - |    21M |   0 | 832 |1119 |1883 |3769 | 52 |   0 |  44 | 0.000000e+00 | 9.040244e+00 |    Inf | unknown
  3.3s|     1 |     2 | 15707 |     - |    21M |   0 | 832 |1119 |1883 |3769 | 52 |   0 |  44 | 0.000000e+00 | 9.040244e+00 |    Inf | unknown
d 9.2s|    67 |    32 | 57767 | 643.6 |pscostdi|  14 | 832 |1147 |2749 |  18k| 10 |  30 | 204 | 0.000000e+00 | 5.380000e+00 |    Inf |   1.43%
d 9.7s|    73 |    34 | 62442 | 654.9 |adaptive|  14 | 832 |1147 |2743 |  19k| 12 |  30 | 205 | 0.000000e+00 | 3.961797e+00 |    Inf |   3.69%
 time | node  | left  |LP iter|LP it/n|mem/heur|mdpt |vars |cons |rows |cuts |sepa|confs|strbr|  dualbound   | primalbound  |  gap   | compl. 
 12.3s|   100 |    61 | 96238 | 817.7 |    37M |  14 | 832 |1168 |2054 |  25k|  2 |  52 | 210 | 0.000000e+00 | 3.961797e+00 |    Inf |   3.98%
 20.0s|   200 |   153 |196358 | 909.9 |    53M |  14 | 832 |1194 |2788 |  46k|  6 | 154 | 214 | 0.000000e+00 | 3.961797e+00 |    Inf |  15.23%
 28.9s|   300 |   243 |305464 | 970.5 |    77M |  14 | 832 |1194 |2459 |  68k|  6 | 230 | 215 | 0.000000e+00 | 3.961797e+00 |    Inf |  16.43%
 37.7s|   400 |   333 |407378 | 982.7 |   108M |  14 | 832 |1194 |2621 |  88k| 13 | 331 | 215 | 3.786368e-02 | 3.961797e+00 |  Large |  20.44%
 46.6s|   500 |   423 |511521 | 994.5 |   134M |  18 | 832 |1194 |2996 | 109k|  1 | 418 | 215 | 3.786368e-02 | 3.961797e+00 |  Large |  20.84%
 52.4s|   600 |   495 |570739 | 927.3 |   146M |  22 | 832 |1194 |3242 | 126k|  6 | 454 | 215 | 9.200777e-02 | 3.961797e+00 |4205.94%|  21.07%
 57.2s|   700 |   537 |623684 | 870.4 |   157M |  22 | 832 |1194 |2998 | 141k|  6 | 478 | 215 | 9.668790e-02 | 3.961797e+00 |3997.51%|  21.30%
 62.3s|   800 |   595 |674276 | 824.8 |   163M |  24 | 832 |1194 |3158 | 154k|  5 | 512 | 215 | 1.806315e-01 | 3.961797e+00 |2093.30%|  21.52%
 67.9s|   900 |   641 |729056 | 794.0 |   173M |  26 | 832 |1194 |2732 | 168k|  6 | 533 | 215 | 2.593530e-01 | 3.961797e+00 |1427.57%|  21.65%
 73.8s|  1000 |   693 |791167 | 776.7 |   185M |  26 | 832 |1194 |2611 | 184k| 13 | 575 | 217 | 2.801654e-01 | 3.961797e+00 |1314.09%|  21.94%
*79.0s|  1094 |   728 |845967 | 760.0 |    LP  |  26 | 832 |1194 |3473 | 198k| 12 | 603 | 217 | 3.343232e-01 | 3.937297e+00 |1077.69%|  23.35%
 79.1s|  1100 |   728 |847472 | 757.2 |   198M |  26 | 832 |1194 |3395 | 198k|  6 | 603 | 217 | 3.343232e-01 | 3.937297e+00 |1077.69%|  23.40%
 83.7s|  1200 |   778 |895980 | 734.5 |   203M |  26 | 832 |1194 |3336 | 212k|  6 | 627 | 220 | 3.498304e-01 | 3.937297e+00 |1025.49%|  24.26%
 89.3s|  1300 |   830 |948088 | 718.1 |   211M |  26 | 832 |1194 |2556 | 226k|  8 | 658 | 229 | 3.607272e-01 | 3.937297e+00 | 991.49%|  24.70%
 95.4s|  1400 |   886 |  1009k| 710.6 |   223M |  26 | 832 |1194 |2768 | 241k|  2 | 694 | 234 | 4.222036e-01 | 3.937297e+00 | 832.56%|  25.58%
 time | node  | left  |LP iter|LP it/n|mem/heur|mdpt |vars |cons |rows |cuts |sepa|confs|strbr|  dualbound   | primalbound  |  gap   | compl. 
  101s|  1500 |   932 |  1062k| 698.7 |   230M |  26 | 832 |1194 |3081 | 254k|  5 | 724 | 242 | 5.172701e-01 | 3.937297e+00 | 661.17%|  26.38%
  106s|  1600 |   974 |  1116k| 688.9 |   239M |  26 | 832 |1194 |3090 | 268k|  0 | 752 | 253 | 5.777606e-01 | 3.937297e+00 | 581.48%|  28.06%
  111s|  1700 |  1012 |  1165k| 677.1 |   249M |  27 | 832 |1194 |2870 | 282k|  0 | 779 | 257 | 5.911430e-01 | 3.937297e+00 | 566.05%|  28.66%
  115s|  1800 |  1042 |  1206k| 662.2 |   252M |  27 | 832 |1194 |2336 | 294k|  6 | 807 | 267 | 6.241825e-01 | 3.937297e+00 | 530.79%|  29.29%
  119s|  1900 |  1066 |  1245k| 647.9 |   254M |  27 | 832 |1194 |2875 | 305k|  5 | 825 | 270 | 6.344493e-01 | 3.937297e+00 | 520.59%|  29.96%
  123s|  2000 |  1092 |  1283k| 634.5 |   258M |  27 | 832 |1194 |2757 | 317k|  1 | 850 | 272 | 6.344493e-01 | 3.937297e+00 | 520.59%|  30.57%
  127s|  2100 |  1106 |  1318k| 620.8 |   265M |  27 | 832 |1194 |2712 | 327k|  6 | 865 | 274 | 7.572584e-01 | 3.937297e+00 | 419.94%|  31.76%
  131s|  2200 |  1138 |  1360k| 611.7 |   271M |  27 | 832 |1194 |3225 | 340k|  0 | 896 | 278 | 7.958151e-01 | 3.937297e+00 | 394.75%|  32.44%
  135s|  2300 |  1150 |  1396k| 600.6 |   276M |  27 | 832 |1194 |2887 | 350k|  0 | 921 | 281 | 8.389161e-01 | 3.937297e+00 | 369.33%|  33.34%
  140s|  2400 |  1168 |  1443k| 595.3 |   286M |  27 | 832 |1194 |2466 | 362k|  7 | 944 | 288 | 9.055707e-01 | 3.937297e+00 | 334.79%|  34.22%
  143s|  2500 |  1176 |  1478k| 585.6 |   289M |  27 | 832 |1194 |2637 | 373k|  7 | 963 | 292 | 9.568767e-01 | 3.937297e+00 | 311.47%|  35.27%
  147s|  2600 |  1198 |  1514k| 576.7 |   292M |  27 | 832 |1194 |2672 | 384k|  4 | 978 | 295 | 9.627480e-01 | 3.937297e+00 | 308.96%|  36.02%
  151s|  2700 |  1220 |  1550k| 568.9 |   297M |  27 | 832 |1194 |2987 | 395k|  5 | 995 | 295 | 9.627480e-01 | 3.937297e+00 | 308.96%|  37.10%
  154s|  2800 |  1246 |  1587k| 561.8 |   301M |  27 | 832 |1194 |2697 | 406k|  6 |1019 | 299 | 1.033493e+00 | 3.937297e+00 | 280.97%|  37.49%
  158s|  2900 |  1272 |  1624k| 555.1 |   304M |  27 | 832 |1194 |2835 | 418k|  0 |1046 | 306 | 1.062452e+00 | 3.937297e+00 | 270.59%|  38.09%
 time | node  | left  |LP iter|LP it/n|mem/heur|mdpt |vars |cons |rows |cuts |sepa|confs|strbr|  dualbound   | primalbound  |  gap   | compl. 
  163s|  3000 |  1298 |  1667k| 551.0 |   316M |  27 | 832 |1194 |2778 | 430k|  0 |1087 | 310 | 1.135210e+00 | 3.937297e+00 | 246.83%|  38.89%
  167s|  3100 |  1312 |  1704k| 545.2 |   318M |  27 | 832 |1194 |2968 | 440k|  6 |1112 | 314 | 1.164334e+00 | 3.937297e+00 | 238.16%|  39.81%
  170s|  3200 |  1316 |  1740k| 539.3 |   322M |  27 | 832 |1194 |3007 | 450k|  0 |1134 | 315 | 1.201027e+00 | 3.937297e+00 | 227.83%|  40.85%
  174s|  3300 |  1328 |  1773k| 533.1 |   323M |  27 | 832 |1194 |2640 | 460k|  5 |1160 | 322 | 1.215882e+00 | 3.937297e+00 | 223.82%|  41.34%
  178s|  3400 |  1350 |  1814k| 529.4 |   326M |  27 | 832 |1194 |2744 | 471k|  1 |1196 | 328 | 1.294176e+00 | 3.937297e+00 | 204.23%|  42.00%
  181s|  3500 |  1354 |  1842k| 522.1 |   328M |  27 | 832 |1194 |3417 | 480k|  6 |1219 | 336 | 1.306710e+00 | 3.937297e+00 | 201.31%|  42.31%
  185s|  3600 |  1360 |  1872k| 516.0 |   333M |  27 | 832 |1194 |3075 | 490k|  5 |1248 | 342 | 1.327749e+00 | 3.937297e+00 | 196.54%|  42.85%
  188s|  3700 |  1364 |  1906k| 511.3 |   334M |  27 | 832 |1194 |2916 | 500k|  7 |1263 | 345 | 1.386298e+00 | 3.937297e+00 | 184.02%|  43.53%
  191s|  3800 |  1382 |  1941k| 507.1 |   338M |  27 | 832 |1194 |2946 | 511k|  6 |1290 | 351 | 1.439837e+00 | 3.937297e+00 | 173.45%|  44.17%
  195s|  3900 |  1388 |  1974k| 502.6 |   344M |  27 | 832 |1194 |3146 | 520k|  6 |1318 | 359 | 1.528447e+00 | 3.937297e+00 | 157.60%|  44.71%
  200s|  4000 |  1396 |  2017k| 500.6 |   351M |  27 | 832 |1194 |2548 | 532k|  6 |1351 | 365 | 1.534484e+00 | 3.937297e+00 | 156.59%|  45.35%
  205s|  4100 |  1412 |  2064k| 499.8 |   364M |  27 | 832 |1194 |4289 | 544k| 12 |1382 | 376 | 1.538938e+00 | 3.937297e+00 | 155.85%|  45.94%
  209s|  4200 |  1418 |  2099k| 496.4 |   365M |  27 | 832 |1194 |2339 | 555k|  2 |1398 | 379 | 1.539389e+00 | 3.937297e+00 | 155.77%|  46.28%
  213s|  4300 |  1428 |  2132k| 492.4 |   369M |  27 | 832 |1194 |2672 | 565k|  9 |1420 | 387 | 1.553980e+00 | 3.937297e+00 | 153.37%|  46.84%
  216s|  4400 |  1430 |  2158k| 487.1 |   369M |  27 | 832 |1194 |2993 | 574k|  6 |1436 | 390 | 1.575764e+00 | 3.937297e+00 | 149.87%|  47.04%
 time | node  | left  |LP iter|LP it/n|mem/heur|mdpt |vars |cons |rows |cuts |sepa|confs|strbr|  dualbound   | primalbound  |  gap   | compl. 
  219s|  4500 |  1428 |  2193k| 484.1 |   374M |  27 | 832 |1194 |3038 | 583k|  1 |1461 | 391 | 1.585431e+00 | 3.937297e+00 | 148.34%|  47.78%
  223s|  4600 |  1430 |  2223k| 480.1 |   379M |  27 | 832 |1194 |2969 | 592k|  6 |1486 | 401 | 1.602466e+00 | 3.937297e+00 | 145.70%|  48.51%
  226s|  4700 |  1430 |  2255k| 476.8 |   380M |  27 | 832 |1194 |3004 | 601k|  6 |1508 | 411 | 1.618330e+00 | 3.937297e+00 | 143.29%|  49.17%
  230s|  4800 |  1436 |  2290k| 474.1 |   384M |  27 | 832 |1194 |2758 | 611k| 10 |1524 | 419 | 1.634802e+00 | 3.937297e+00 | 140.84%|  49.65%
  234s|  4900 |  1438 |  2325k| 471.6 |   394M |  27 | 832 |1194 |3114 | 621k|  0 |1551 | 423 | 1.670672e+00 | 3.937297e+00 | 135.67%|  50.22%
  237s|  5000 |  1432 |  2353k| 467.8 |   396M |  27 | 832 |1194 |3038 | 629k|  0 |1572 | 425 | 1.693443e+00 | 3.937297e+00 | 132.50%|  50.78%
  240s|  5100 |  1426 |  2382k| 464.3 |   397M |  27 | 832 |1194 |2799 | 637k|  0 |1591 | 427 | 1.713364e+00 | 3.937297e+00 | 129.80%|  51.43%
  243s|  5200 |  1420 |  2410k| 460.7 |   398M |  27 | 832 |1194 |3109 | 646k|  5 |1606 | 434 | 1.756869e+00 | 3.937297e+00 | 124.11%|  52.11%
  247s|  5300 |  1424 |  2440k| 457.7 |   399M |  27 | 832 |1194 |3361 | 654k|  7 |1627 | 446 | 1.772210e+00 | 3.937297e+00 | 122.17%|  52.56%
  250s|  5400 |  1424 |  2466k| 454.0 |   399M |  27 | 832 |1194 |3276 | 662k|  1 |1643 | 449 | 1.786429e+00 | 3.937297e+00 | 120.40%|  52.75%
  253s|  5500 |  1430 |  2495k| 451.1 |   400M |  27 | 832 |1194 |2859 | 671k|  7 |1659 | 452 | 1.805901e+00 | 3.937297e+00 | 118.02%|  53.29%
  256s|  5600 |  1426 |  2524k| 448.1 |   402M |  27 | 832 |1194 |2737 | 679k|  0 |1674 | 455 | 1.810556e+00 | 3.937297e+00 | 117.46%|  54.16%
  259s|  5700 |  1416 |  2550k| 444.9 |   404M |  27 | 832 |1194 |2912 | 687k|  0 |1681 | 455 | 1.825182e+00 | 3.937297e+00 | 115.72%|  55.08%
  262s|  5800 |  1418 |  2584k| 443.1 |   405M |  27 | 832 |1194 |2917 | 697k|  0 |1709 | 466 | 1.841838e+00 | 3.937297e+00 | 113.77%|  55.65%
  265s|  5900 |  1424 |  2614k| 440.6 |   406M |  27 | 832 |1194 |2919 | 706k|  5 |1728 | 468 | 1.855318e+00 | 3.937297e+00 | 112.22%|  56.23%
 time | node  | left  |LP iter|LP it/n|mem/heur|mdpt |vars |cons |rows |cuts |sepa|confs|strbr|  dualbound   | primalbound  |  gap   | compl. 
  269s|  6000 |  1416 |  2646k| 438.6 |   406M |  27 | 832 |1194 |2935 | 714k|  0 |1754 | 468 | 1.869840e+00 | 3.937297e+00 | 110.57%|  57.00%
  272s|  6100 |  1410 |  2676k| 436.4 |   408M |  27 | 832 |1194 |2565 | 723k|  0 |1781 | 477 | 1.876043e+00 | 3.937297e+00 | 109.87%|  57.53%
  276s|  6200 |  1412 |  2708k| 434.5 |   411M |  27 | 832 |1194 |2826 | 732k|  6 |1796 | 477 | 1.889498e+00 | 3.937297e+00 | 108.38%|  57.79%
  279s|  6300 |  1414 |  2738k| 432.3 |   411M |  27 | 832 |1194 |3000 | 741k|  0 |1812 | 482 | 1.897669e+00 | 3.937297e+00 | 107.48%|  58.05%
  283s|  6400 |  1410 |  2770k| 430.5 |   414M |  27 | 832 |1194 |2968 | 750k|  0 |1832 | 487 | 1.920712e+00 | 3.937297e+00 | 104.99%|  58.57%
  286s|  6500 |  1406 |  2797k| 428.1 |   427M |  27 | 832 |1194 |3190 | 758k|  1 |1852 | 488 | 1.929359e+00 | 3.937297e+00 | 104.07%|  59.07%
  288s|  6600 |  1398 |  2826k| 426.0 |   428M |  27 | 832 |1194 |2756 | 767k|  0 |1867 | 492 | 1.963183e+00 | 3.937297e+00 | 100.56%|  59.88%
  291s|  6700 |  1378 |  2850k| 423.2 |   429M |  27 | 832 |1194 |2879 | 775k|  6 |1888 | 498 | 1.964443e+00 | 3.937297e+00 | 100.43%|  60.36%
  295s|  6800 |  1364 |  2878k| 421.1 |   429M |  27 | 832 |1194 |2897 | 782k|  6 |1908 | 500 | 1.973969e+00 | 3.937297e+00 |  99.46%|  60.99%
  297s|  6900 |  1348 |  2903k| 418.6 |   429M |  27 | 832 |1194 |2582 | 789k|  0 |1930 | 504 | 2.000897e+00 | 3.937297e+00 |  96.78%|  61.34%

SCIP Status        : solving was interrupted [time limit reached]
Solving Time (sec) : 300.00
Solving Nodes      : 6980
Primal Bound       : +3.93729740189040e+00 (11 solutions)
Dual Bound         : +2.00110250148948e+00
Gap                : 96.76 %


--- Reading solution for model GAMS_MODEL
***
*** Solver did not provide marginals for model GAMS_MODEL
***
--- Executing after solve: elapsed 0:05:00.304
--- model.gms(3726) 4 Mb
--- model.gms(5465) 6 Mb
--- Putfile results /local/scratch/a/sgusev/repos/k_means/data/gams_scip_gdp.hull_exact_conic_no_cholesky/no_mode/2026-02-16_02-26-46/original/results.dat
--- Putfile statresults /local/scratch/a/sgusev/repos/k_means/data/gams_scip_gdp.hull_exact_conic_no_cholesky/no_mode/2026-02-16_02-26-46/original/resultsstat.dat
*** Status: Normal completion
--- Job model.gms Stop 02/16/26 02:31:47 elapsed 0:05:00.307
Original problem solved. Time taken: 300.9382712841034 seconds
Original objective value: 3.937297401890402
